c Qdimacs file from skolem function generator
p cnf 566 1548
a 376 377 378 379 380 381 382 383 384 385 386 387 388 389 390 391 392 393 394 395 396 397 398 399 400 401 402 403 404 405 406 407 408 409 410 411 412 413 414 415 416 417 418 419 420 421 422 423 424 425 426 427 428 429 430 431 432 433 434 435 436 437 438 439 440 441 442 443 444 445 446 447 448 449 450 451 452 453 454 455 456 457 458 459 460 461 462 463 464 465 466 467 468 469 470 471 472 473 474 475 476 477 478 479 480 481 482 483 484 485 486 487 488 489 490 491 492 493 494 495 496 497 498 499 500 501 502 503 0
e 375 504 505 506 507 508 509 510 511 512 513 514 515 516 517 518 519 520 521 522 523 524 525 526 527 528 529 530 531 532 533 534 535 536 537 538 539 540 541 542 543 544 545 546 547 548 549 550 551 552 553 554 555 556 557 558 559 560 561 562 563 564 565 1 2 3 4 5 6 7 8 9 10 11 12 13 14 15 16 17 18 19 20 21 22 23 24 25 26 27 28 29 30 31 32 33 34 35 36 37 38 39 40 41 42 43 44 45 46 47 48 49 50 51 52 53 54 55 56 57 58 59 60 61 62 63 64 65 66 67 68 69 70 71 72 73 74 75 76 77 78 79 80 81 82 83 84 85 86 87 88 89 90 91 92 93 94 95 96 97 98 99 100 101 102 103 104 105 106 107 108 109 110 111 112 113 114 115 116 117 118 119 120 121 122 123 124 125 126 127 128 129 130 131 132 133 134 135 136 137 138 139 140 141 142 143 144 145 146 147 148 149 150 151 152 153 154 155 156 157 158 159 160 161 162 163 164 165 166 167 168 169 170 171 172 173 174 175 176 177 178 179 180 181 182 183 184 185 186 187 188 189 190 191 192 193 194 195 196 197 198 199 200 201 202 203 204 205 206 207 208 209 210 211 212 213 214 215 216 217 218 219 220 221 222 223 224 225 226 227 228 229 230 231 232 233 234 235 236 237 238 239 240 241 242 243 244 245 246 247 248 249 250 251 252 253 254 255 256 257 258 259 260 261 262 263 264 265 266 267 268 269 270 271 272 273 274 275 276 277 278 279 280 281 282 283 284 285 286 287 288 289 290 291 292 293 294 295 296 297 298 299 300 301 302 303 304 305 306 307 308 309 310 311 312 313 314 315 316 317 318 319 320 321 322 323 324 325 326 327 328 329 330 331 332 333 334 335 336 337 338 339 340 341 342 343 344 345 346 347 348 349 350 351 352 353 354 355 356 357 358 359 360 361 362 363 364 365 366 367 368 369 370 371 372 373 374 566 0
4 5 137 142 -145 0
-4 145 0
-4 -142 0
-4 -5 0
-4 -137 0
5 504 -6 0
5 -504 6 0
-5 -504 -6 0
-5 504 6 0
6 -7 -136 0
6 7 136 0
-6 7 -136 0
-6 -7 136 0
7 378 8 0
7 379 8 0
-7 -8 0
-7 -378 -379 0
8 378 -379 9 0
8 -378 379 9 0
-8 -9 0
-8 378 379 0
-8 -378 -379 0
9 380 10 0
9 381 10 0
-9 -10 0
-9 -380 -381 0
10 380 -381 11 0
10 -380 381 11 0
-10 -11 0
-10 380 381 0
-10 -380 -381 0
11 382 12 0
11 383 12 0
-11 -12 0
-11 -382 -383 0
12 382 -383 13 0
12 -382 383 13 0
-12 -13 0
-12 382 383 0
-12 -382 -383 0
13 384 14 0
13 385 14 0
-13 -14 0
-13 -384 -385 0
14 384 -385 15 0
14 -384 385 15 0
-14 -15 0
-14 384 385 0
-14 -384 -385 0
15 386 16 0
15 387 16 0
-15 -16 0
-15 -386 -387 0
16 386 -387 17 0
16 -386 387 17 0
-16 -17 0
-16 386 387 0
-16 -386 -387 0
17 388 18 0
17 389 18 0
-17 -18 0
-17 -388 -389 0
18 388 -389 19 0
18 -388 389 19 0
-18 -19 0
-18 388 389 0
-18 -388 -389 0
19 390 20 0
19 391 20 0
-19 -20 0
-19 -390 -391 0
20 21 -135 0
-20 -21 0
-20 135 0
21 392 22 0
21 393 22 0
-21 -22 0
-21 -392 -393 0
22 392 -393 23 0
22 -392 393 23 0
-22 -23 0
-22 392 393 0
-22 -392 -393 0
23 394 24 0
23 395 24 0
-23 -24 0
-23 -394 -395 0
24 394 -395 25 0
24 -394 395 25 0
-24 -25 0
-24 394 395 0
-24 -394 -395 0
25 396 26 0
25 397 26 0
-25 -26 0
-25 -396 -397 0
26 396 -397 27 0
26 -396 397 27 0
-26 -27 0
-26 396 397 0
-26 -396 -397 0
27 398 28 0
27 399 28 0
-27 -28 0
-27 -398 -399 0
28 398 -399 29 0
28 -398 399 29 0
-28 -29 0
-28 398 399 0
-28 -398 -399 0
29 400 30 0
29 401 30 0
-29 -30 0
-29 -400 -401 0
30 400 -401 31 0
30 -400 401 31 0
-30 -31 0
-30 400 401 0
-30 -400 -401 0
31 402 32 0
31 403 32 0
-31 -32 0
-31 -402 -403 0
32 33 -134 0
-32 -33 0
-32 134 0
33 404 34 0
33 405 34 0
-33 -34 0
-33 -404 -405 0
34 404 -405 35 0
34 -404 405 35 0
-34 -35 0
-34 404 405 0
-34 -404 -405 0
35 406 36 0
35 407 36 0
-35 -36 0
-35 -406 -407 0
36 406 -407 37 0
36 -406 407 37 0
-36 -37 0
-36 406 407 0
-36 -406 -407 0
37 408 38 0
37 409 38 0
-37 -38 0
-37 -408 -409 0
38 408 -409 39 0
38 -408 409 39 0
-38 -39 0
-38 408 409 0
-38 -408 -409 0
39 410 40 0
39 411 40 0
-39 -40 0
-39 -410 -411 0
40 410 -411 41 0
40 -410 411 41 0
-40 -41 0
-40 410 411 0
-40 -410 -411 0
41 412 42 0
41 413 42 0
-41 -42 0
-41 -412 -413 0
42 412 -413 43 0
42 -412 413 43 0
-42 -43 0
-42 412 413 0
-42 -412 -413 0
43 414 44 0
43 415 44 0
-43 -44 0
-43 -414 -415 0
44 414 -415 45 0
44 -414 415 45 0
-44 -45 0
-44 414 415 0
-44 -414 -415 0
45 416 46 0
45 417 46 0
-45 -46 0
-45 -416 -417 0
46 416 -417 47 0
46 -416 417 47 0
-46 -47 0
-46 416 417 0
-46 -416 -417 0
47 418 48 0
47 419 48 0
-47 -48 0
-47 -418 -419 0
48 418 -419 49 0
48 -418 419 49 0
-48 -49 0
-48 418 419 0
-48 -418 -419 0
49 420 50 0
49 421 50 0
-49 -50 0
-49 -420 -421 0
50 420 -421 51 0
50 -420 421 51 0
-50 -51 0
-50 420 421 0
-50 -420 -421 0
51 422 52 0
51 423 52 0
-51 -52 0
-51 -422 -423 0
52 53 -133 0
-52 -53 0
-52 133 0
53 424 54 0
53 425 54 0
-53 -54 0
-53 -424 -425 0
54 424 -425 55 0
54 -424 425 55 0
-54 -55 0
-54 424 425 0
-54 -424 -425 0
55 426 56 0
55 427 56 0
-55 -56 0
-55 -426 -427 0
56 426 -427 57 0
56 -426 427 57 0
-56 -57 0
-56 426 427 0
-56 -426 -427 0
57 428 58 0
57 429 58 0
-57 -58 0
-57 -428 -429 0
58 428 -429 59 0
58 -428 429 59 0
-58 -59 0
-58 428 429 0
-58 -428 -429 0
59 430 60 0
59 431 60 0
-59 -60 0
-59 -430 -431 0
60 61 -132 0
-60 -61 0
-60 132 0
61 432 62 0
61 433 62 0
-61 -62 0
-61 -432 -433 0
62 432 -433 63 0
62 -432 433 63 0
-62 -63 0
-62 432 433 0
-62 -432 -433 0
63 434 64 0
63 435 64 0
-63 -64 0
-63 -434 -435 0
64 65 -131 0
-64 -65 0
-64 131 0
65 436 66 0
65 437 66 0
-65 -66 0
-65 -436 -437 0
66 436 -437 67 0
66 -436 437 67 0
-66 -67 0
-66 436 437 0
-66 -436 -437 0
67 438 68 0
67 439 68 0
-67 -68 0
-67 -438 -439 0
68 438 -439 69 0
68 -438 439 69 0
-68 -69 0
-68 438 439 0
-68 -438 -439 0
69 440 70 0
69 441 70 0
-69 -70 0
-69 -440 -441 0
70 440 -441 71 0
70 -440 441 71 0
-70 -71 0
-70 440 441 0
-70 -440 -441 0
71 442 72 0
71 443 72 0
-71 -72 0
-71 -442 -443 0
72 442 -443 73 0
72 -442 443 73 0
-72 -73 0
-72 442 443 0
-72 -442 -443 0
73 444 74 0
73 445 74 0
-73 -74 0
-73 -444 -445 0
74 444 -445 75 0
74 -444 445 75 0
-74 -75 0
-74 444 445 0
-74 -444 -445 0
75 446 76 0
75 447 76 0
-75 -76 0
-75 -446 -447 0
76 446 -447 77 0
76 -446 447 77 0
-76 -77 0
-76 446 447 0
-76 -446 -447 0
77 448 78 0
77 449 78 0
-77 -78 0
-77 -448 -449 0
78 448 -449 79 0
78 -448 449 79 0
-78 -79 0
-78 448 449 0
-78 -448 -449 0
79 450 80 0
79 451 80 0
-79 -80 0
-79 -450 -451 0
80 450 -451 81 0
80 -450 451 81 0
-80 -81 0
-80 450 451 0
-80 -450 -451 0
81 452 82 0
81 453 82 0
-81 -82 0
-81 -452 -453 0
82 452 -453 83 0
82 -452 453 83 0
-82 -83 0
-82 452 453 0
-82 -452 -453 0
83 454 84 0
83 455 84 0
-83 -84 0
-83 -454 -455 0
84 454 -455 85 0
84 -454 455 85 0
-84 -85 0
-84 454 455 0
-84 -454 -455 0
85 456 86 0
85 457 86 0
-85 -86 0
-85 -456 -457 0
86 456 -457 87 0
86 -456 457 87 0
-86 -87 0
-86 456 457 0
-86 -456 -457 0
87 458 88 0
87 459 88 0
-87 -88 0
-87 -458 -459 0
88 458 -459 89 0
88 -458 459 89 0
-88 -89 0
-88 458 459 0
-88 -458 -459 0
89 460 90 0
89 461 90 0
-89 -90 0
-89 -460 -461 0
90 460 -461 91 0
90 -460 461 91 0
-90 -91 0
-90 460 461 0
-90 -460 -461 0
91 462 92 0
91 463 92 0
-91 -92 0
-91 -462 -463 0
92 462 -463 93 0
92 -462 463 93 0
-92 -93 0
-92 462 463 0
-92 -462 -463 0
93 464 94 0
93 465 94 0
-93 -94 0
-93 -464 -465 0
94 464 -465 95 0
94 -464 465 95 0
-94 -95 0
-94 464 465 0
-94 -464 -465 0
95 466 96 0
95 467 96 0
-95 -96 0
-95 -466 -467 0
96 466 -467 97 0
96 -466 467 97 0
-96 -97 0
-96 466 467 0
-96 -466 -467 0
97 468 98 0
97 469 98 0
-97 -98 0
-97 -468 -469 0
98 468 -469 99 0
98 -468 469 99 0
-98 -99 0
-98 468 469 0
-98 -468 -469 0
99 470 100 0
99 471 100 0
-99 -100 0
-99 -470 -471 0
100 470 -471 101 0
100 -470 471 101 0
-100 -101 0
-100 470 471 0
-100 -470 -471 0
101 472 102 0
101 473 102 0
-101 -102 0
-101 -472 -473 0
102 472 -473 103 0
102 -472 473 103 0
-102 -103 0
-102 472 473 0
-102 -472 -473 0
103 474 104 0
103 475 104 0
-103 -104 0
-103 -474 -475 0
104 474 -475 105 0
104 -474 475 105 0
-104 -105 0
-104 474 475 0
-104 -474 -475 0
105 476 106 0
105 477 106 0
-105 -106 0
-105 -476 -477 0
106 476 -477 107 0
106 -476 477 107 0
-106 -107 0
-106 476 477 0
-106 -476 -477 0
107 478 108 0
107 479 108 0
-107 -108 0
-107 -478 -479 0
108 478 -479 109 0
108 -478 479 109 0
-108 -109 0
-108 478 479 0
-108 -478 -479 0
109 480 110 0
109 481 110 0
-109 -110 0
-109 -480 -481 0
110 480 -481 111 0
110 -480 481 111 0
-110 -111 0
-110 480 481 0
-110 -480 -481 0
111 482 112 0
111 483 112 0
-111 -112 0
-111 -482 -483 0
112 482 -483 113 0
112 -482 483 113 0
-112 -113 0
-112 482 483 0
-112 -482 -483 0
113 484 114 0
113 485 114 0
-113 -114 0
-113 -484 -485 0
114 484 -485 115 0
114 -484 485 115 0
-114 -115 0
-114 484 485 0
-114 -484 -485 0
115 486 116 0
115 487 116 0
-115 -116 0
-115 -486 -487 0
116 486 -487 117 0
116 -486 487 117 0
-116 -117 0
-116 486 487 0
-116 -486 -487 0
117 488 118 0
117 489 118 0
-117 -118 0
-117 -488 -489 0
118 488 -489 119 0
118 -488 489 119 0
-118 -119 0
-118 488 489 0
-118 -488 -489 0
119 490 120 0
119 491 120 0
-119 -120 0
-119 -490 -491 0
120 490 -491 121 0
120 -490 491 121 0
-120 -121 0
-120 490 491 0
-120 -490 -491 0
121 492 122 0
121 493 122 0
-121 -122 0
-121 -492 -493 0
122 123 -130 0
-122 -123 0
-122 130 0
123 494 124 0
123 495 124 0
-123 -124 0
-123 -494 -495 0
124 494 -495 125 0
124 -494 495 125 0
-124 -125 0
-124 494 495 0
-124 -494 -495 0
125 496 126 0
125 497 126 0
-125 -126 0
-125 -496 -497 0
126 127 -129 0
-126 -127 0
-126 129 0
127 498 128 0
127 499 128 0
-127 -128 0
-127 -498 -499 0
128 498 -499 -500 -501 0
128 -498 499 -500 -501 0
-128 501 0
-128 498 499 0
-128 500 0
-128 -498 -499 0
129 496 -497 0
129 -496 497 0
-129 -496 -497 0
-129 496 497 0
130 492 -493 0
130 -492 493 0
-130 -492 -493 0
-130 492 493 0
131 434 -435 0
131 -434 435 0
-131 -434 -435 0
-131 434 435 0
132 430 -431 0
132 -430 431 0
-132 -430 -431 0
-132 430 431 0
133 422 -423 0
133 -422 423 0
-133 -422 -423 0
-133 422 423 0
134 402 -403 0
134 -402 403 0
-134 -402 -403 0
-134 402 403 0
135 390 -391 0
135 -390 391 0
-135 -390 -391 0
-135 390 391 0
136 376 -377 0
136 -376 377 0
-136 -376 -377 0
-136 376 377 0
137 -138 -140 0
137 138 140 0
-137 138 -140 0
-137 -138 140 0
138 376 139 0
138 377 139 0
-138 -139 0
-138 -376 -377 0
139 376 -377 7 0
139 -376 377 7 0
-139 -7 0
-139 376 377 0
-139 -376 -377 0
140 375 -141 0
140 -375 141 0
-140 -375 -141 0
-140 375 141 0
141 502 -503 0
141 -502 503 0
-141 -502 -503 0
-141 502 503 0
142 505 -143 0
142 -505 143 0
-142 -505 -143 0
-142 505 143 0
143 -9 -144 0
143 9 144 0
-143 9 -144 0
-143 -9 144 0
144 378 -379 0
144 -378 379 0
-144 -378 -379 0
-144 378 379 0
145 146 149 -152 0
-145 152 0
-145 -149 0
-145 -146 0
146 506 -147 0
146 -506 147 0
-146 -506 -147 0
-146 506 147 0
147 -11 -148 0
147 11 148 0
-147 11 -148 0
-147 -11 148 0
148 380 -381 0
148 -380 381 0
-148 -380 -381 0
-148 380 381 0
149 507 -150 0
149 -507 150 0
-149 -507 -150 0
-149 507 150 0
150 -13 -151 0
150 13 151 0
-150 13 -151 0
-150 -13 151 0
151 382 -383 0
151 -382 383 0
-151 -382 -383 0
-151 382 383 0
152 153 156 -159 0
-152 159 0
-152 -156 0
-152 -153 0
153 508 -154 0
153 -508 154 0
-153 -508 -154 0
-153 508 154 0
154 -15 -155 0
154 15 155 0
-154 15 -155 0
-154 -15 155 0
155 384 -385 0
155 -384 385 0
-155 -384 -385 0
-155 384 385 0
156 509 -157 0
156 -509 157 0
-156 -509 -157 0
-156 509 157 0
157 -17 -158 0
157 17 158 0
-157 17 -158 0
-157 -17 158 0
158 386 -387 0
158 -386 387 0
-158 -386 -387 0
-158 386 387 0
159 160 163 -165 0
-159 165 0
-159 -163 0
-159 -160 0
160 510 -161 0
160 -510 161 0
-160 -510 -161 0
-160 510 161 0
161 -19 -162 0
161 19 162 0
-161 19 -162 0
-161 -19 162 0
162 388 -389 0
162 -388 389 0
-162 -388 -389 0
-162 388 389 0
163 511 -164 0
163 -511 164 0
-163 -511 -164 0
-163 511 164 0
164 -21 -135 0
164 21 135 0
-164 21 -135 0
-164 -21 135 0
165 166 169 -172 0
-165 172 0
-165 -169 0
-165 -166 0
166 512 -167 0
166 -512 167 0
-166 -512 -167 0
-166 512 167 0
167 -23 -168 0
167 23 168 0
-167 23 -168 0
-167 -23 168 0
168 392 -393 0
168 -392 393 0
-168 -392 -393 0
-168 392 393 0
169 513 -170 0
169 -513 170 0
-169 -513 -170 0
-169 513 170 0
170 -25 -171 0
170 25 171 0
-170 25 -171 0
-170 -25 171 0
171 394 -395 0
171 -394 395 0
-171 -394 -395 0
-171 394 395 0
172 173 176 -179 0
-172 179 0
-172 -176 0
-172 -173 0
173 514 -174 0
173 -514 174 0
-173 -514 -174 0
-173 514 174 0
174 -27 -175 0
174 27 175 0
-174 27 -175 0
-174 -27 175 0
175 396 -397 0
175 -396 397 0
-175 -396 -397 0
-175 396 397 0
176 515 -177 0
176 -515 177 0
-176 -515 -177 0
-176 515 177 0
177 -29 -178 0
177 29 178 0
-177 29 -178 0
-177 -29 178 0
178 398 -399 0
178 -398 399 0
-178 -398 -399 0
-178 398 399 0
179 180 183 -185 0
-179 185 0
-179 -183 0
-179 -180 0
180 516 -181 0
180 -516 181 0
-180 -516 -181 0
-180 516 181 0
181 -31 -182 0
181 31 182 0
-181 31 -182 0
-181 -31 182 0
182 400 -401 0
182 -400 401 0
-182 -400 -401 0
-182 400 401 0
183 517 -184 0
183 -517 184 0
-183 -517 -184 0
-183 517 184 0
184 -33 -134 0
184 33 134 0
-184 33 -134 0
-184 -33 134 0
185 186 189 -192 0
-185 192 0
-185 -189 0
-185 -186 0
186 518 -187 0
186 -518 187 0
-186 -518 -187 0
-186 518 187 0
187 -35 -188 0
187 35 188 0
-187 35 -188 0
-187 -35 188 0
188 404 -405 0
188 -404 405 0
-188 -404 -405 0
-188 404 405 0
189 519 -190 0
189 -519 190 0
-189 -519 -190 0
-189 519 190 0
190 -37 -191 0
190 37 191 0
-190 37 -191 0
-190 -37 191 0
191 406 -407 0
191 -406 407 0
-191 -406 -407 0
-191 406 407 0
192 193 196 -199 0
-192 199 0
-192 -196 0
-192 -193 0
193 520 -194 0
193 -520 194 0
-193 -520 -194 0
-193 520 194 0
194 -39 -195 0
194 39 195 0
-194 39 -195 0
-194 -39 195 0
195 408 -409 0
195 -408 409 0
-195 -408 -409 0
-195 408 409 0
196 521 -197 0
196 -521 197 0
-196 -521 -197 0
-196 521 197 0
197 -41 -198 0
197 41 198 0
-197 41 -198 0
-197 -41 198 0
198 410 -411 0
198 -410 411 0
-198 -410 -411 0
-198 410 411 0
199 200 203 -206 0
-199 206 0
-199 -203 0
-199 -200 0
200 522 -201 0
200 -522 201 0
-200 -522 -201 0
-200 522 201 0
201 -43 -202 0
201 43 202 0
-201 43 -202 0
-201 -43 202 0
202 412 -413 0
202 -412 413 0
-202 -412 -413 0
-202 412 413 0
203 523 -204 0
203 -523 204 0
-203 -523 -204 0
-203 523 204 0
204 -45 -205 0
204 45 205 0
-204 45 -205 0
-204 -45 205 0
205 414 -415 0
205 -414 415 0
-205 -414 -415 0
-205 414 415 0
206 207 210 -213 0
-206 213 0
-206 -210 0
-206 -207 0
207 524 -208 0
207 -524 208 0
-207 -524 -208 0
-207 524 208 0
208 -47 -209 0
208 47 209 0
-208 47 -209 0
-208 -47 209 0
209 416 -417 0
209 -416 417 0
-209 -416 -417 0
-209 416 417 0
210 525 -211 0
210 -525 211 0
-210 -525 -211 0
-210 525 211 0
211 -49 -212 0
211 49 212 0
-211 49 -212 0
-211 -49 212 0
212 418 -419 0
212 -418 419 0
-212 -418 -419 0
-212 418 419 0
213 214 217 -219 0
-213 219 0
-213 -217 0
-213 -214 0
214 526 -215 0
214 -526 215 0
-214 -526 -215 0
-214 526 215 0
215 -51 -216 0
215 51 216 0
-215 51 -216 0
-215 -51 216 0
216 420 -421 0
216 -420 421 0
-216 -420 -421 0
-216 420 421 0
217 527 -218 0
217 -527 218 0
-217 -527 -218 0
-217 527 218 0
218 -53 -133 0
218 53 133 0
-218 53 -133 0
-218 -53 133 0
219 220 223 226 -229 0
-219 229 0
-219 -226 0
-219 -220 0
-219 -223 0
220 528 -221 0
220 -528 221 0
-220 -528 -221 0
-220 528 221 0
221 -55 -222 0
221 55 222 0
-221 55 -222 0
-221 -55 222 0
222 424 -425 0
222 -424 425 0
-222 -424 -425 0
-222 424 425 0
223 529 -224 0
223 -529 224 0
-223 -529 -224 0
-223 529 224 0
224 -57 -225 0
224 57 225 0
-224 57 -225 0
-224 -57 225 0
225 426 -427 0
225 -426 427 0
-225 -426 -427 0
-225 426 427 0
226 530 -227 0
226 -530 227 0
-226 -530 -227 0
-226 530 227 0
227 -59 -228 0
227 59 228 0
-227 59 -228 0
-227 -59 228 0
228 428 -429 0
228 -428 429 0
-228 -428 -429 0
-228 428 429 0
229 230 232 235 -237 0
-229 237 0
-229 -235 0
-229 -230 0
-229 -232 0
230 531 -231 0
230 -531 231 0
-230 -531 -231 0
-230 531 231 0
231 -61 -132 0
231 61 132 0
-231 61 -132 0
-231 -61 132 0
232 532 -233 0
232 -532 233 0
-232 -532 -233 0
-232 532 233 0
233 -63 -234 0
233 63 234 0
-233 63 -234 0
-233 -63 234 0
234 432 -433 0
234 -432 433 0
-234 -432 -433 0
-234 432 433 0
235 533 -236 0
235 -533 236 0
-235 -533 -236 0
-235 533 236 0
236 -65 -131 0
236 65 131 0
-236 65 -131 0
-236 -65 131 0
237 238 241 -244 0
-237 244 0
-237 -241 0
-237 -238 0
238 534 -239 0
238 -534 239 0
-238 -534 -239 0
-238 534 239 0
239 -67 -240 0
239 67 240 0
-239 67 -240 0
-239 -67 240 0
240 436 -437 0
240 -436 437 0
-240 -436 -437 0
-240 436 437 0
241 535 -242 0
241 -535 242 0
-241 -535 -242 0
-241 535 242 0
242 -69 -243 0
242 69 243 0
-242 69 -243 0
-242 -69 243 0
243 438 -439 0
243 -438 439 0
-243 -438 -439 0
-243 438 439 0
244 245 248 -251 0
-244 251 0
-244 -248 0
-244 -245 0
245 536 -246 0
245 -536 246 0
-245 -536 -246 0
-245 536 246 0
246 -71 -247 0
246 71 247 0
-246 71 -247 0
-246 -71 247 0
247 440 -441 0
247 -440 441 0
-247 -440 -441 0
-247 440 441 0
248 537 -249 0
248 -537 249 0
-248 -537 -249 0
-248 537 249 0
249 -73 -250 0
249 73 250 0
-249 73 -250 0
-249 -73 250 0
250 442 -443 0
250 -442 443 0
-250 -442 -443 0
-250 442 443 0
251 252 255 -258 0
-251 258 0
-251 -255 0
-251 -252 0
252 538 -253 0
252 -538 253 0
-252 -538 -253 0
-252 538 253 0
253 -75 -254 0
253 75 254 0
-253 75 -254 0
-253 -75 254 0
254 444 -445 0
254 -444 445 0
-254 -444 -445 0
-254 444 445 0
255 539 -256 0
255 -539 256 0
-255 -539 -256 0
-255 539 256 0
256 -77 -257 0
256 77 257 0
-256 77 -257 0
-256 -77 257 0
257 446 -447 0
257 -446 447 0
-257 -446 -447 0
-257 446 447 0
258 259 262 -265 0
-258 265 0
-258 -262 0
-258 -259 0
259 540 -260 0
259 -540 260 0
-259 -540 -260 0
-259 540 260 0
260 -79 -261 0
260 79 261 0
-260 79 -261 0
-260 -79 261 0
261 448 -449 0
261 -448 449 0
-261 -448 -449 0
-261 448 449 0
262 541 -263 0
262 -541 263 0
-262 -541 -263 0
-262 541 263 0
263 -81 -264 0
263 81 264 0
-263 81 -264 0
-263 -81 264 0
264 450 -451 0
264 -450 451 0
-264 -450 -451 0
-264 450 451 0
265 266 269 -272 0
-265 272 0
-265 -269 0
-265 -266 0
266 542 -267 0
266 -542 267 0
-266 -542 -267 0
-266 542 267 0
267 -83 -268 0
267 83 268 0
-267 83 -268 0
-267 -83 268 0
268 452 -453 0
268 -452 453 0
-268 -452 -453 0
-268 452 453 0
269 543 -270 0
269 -543 270 0
-269 -543 -270 0
-269 543 270 0
270 -85 -271 0
270 85 271 0
-270 85 -271 0
-270 -85 271 0
271 454 -455 0
271 -454 455 0
-271 -454 -455 0
-271 454 455 0
272 273 276 -279 0
-272 279 0
-272 -276 0
-272 -273 0
273 544 -274 0
273 -544 274 0
-273 -544 -274 0
-273 544 274 0
274 -87 -275 0
274 87 275 0
-274 87 -275 0
-274 -87 275 0
275 456 -457 0
275 -456 457 0
-275 -456 -457 0
-275 456 457 0
276 545 -277 0
276 -545 277 0
-276 -545 -277 0
-276 545 277 0
277 -89 -278 0
277 89 278 0
-277 89 -278 0
-277 -89 278 0
278 458 -459 0
278 -458 459 0
-278 -458 -459 0
-278 458 459 0
279 280 283 -286 0
-279 286 0
-279 -283 0
-279 -280 0
280 546 -281 0
280 -546 281 0
-280 -546 -281 0
-280 546 281 0
281 -91 -282 0
281 91 282 0
-281 91 -282 0
-281 -91 282 0
282 460 -461 0
282 -460 461 0
-282 -460 -461 0
-282 460 461 0
283 547 -284 0
283 -547 284 0
-283 -547 -284 0
-283 547 284 0
284 -93 -285 0
284 93 285 0
-284 93 -285 0
-284 -93 285 0
285 462 -463 0
285 -462 463 0
-285 -462 -463 0
-285 462 463 0
286 287 290 293 -296 0
-286 296 0
-286 -293 0
-286 -287 0
-286 -290 0
287 548 -288 0
287 -548 288 0
-287 -548 -288 0
-287 548 288 0
288 -95 -289 0
288 95 289 0
-288 95 -289 0
-288 -95 289 0
289 464 -465 0
289 -464 465 0
-289 -464 -465 0
-289 464 465 0
290 549 -291 0
290 -549 291 0
-290 -549 -291 0
-290 549 291 0
291 -97 -292 0
291 97 292 0
-291 97 -292 0
-291 -97 292 0
292 466 -467 0
292 -466 467 0
-292 -466 -467 0
-292 466 467 0
293 550 -294 0
293 -550 294 0
-293 -550 -294 0
-293 550 294 0
294 -99 -295 0
294 99 295 0
-294 99 -295 0
-294 -99 295 0
295 468 -469 0
295 -468 469 0
-295 -468 -469 0
-295 468 469 0
296 297 300 303 -306 0
-296 306 0
-296 -303 0
-296 -297 0
-296 -300 0
297 551 -298 0
297 -551 298 0
-297 -551 -298 0
-297 551 298 0
298 -101 -299 0
298 101 299 0
-298 101 -299 0
-298 -101 299 0
299 470 -471 0
299 -470 471 0
-299 -470 -471 0
-299 470 471 0
300 552 -301 0
300 -552 301 0
-300 -552 -301 0
-300 552 301 0
301 -103 -302 0
301 103 302 0
-301 103 -302 0
-301 -103 302 0
302 472 -473 0
302 -472 473 0
-302 -472 -473 0
-302 472 473 0
303 553 -304 0
303 -553 304 0
-303 -553 -304 0
-303 553 304 0
304 -105 -305 0
304 105 305 0
-304 105 -305 0
-304 -105 305 0
305 474 -475 0
305 -474 475 0
-305 -474 -475 0
-305 474 475 0
306 307 310 313 -316 0
-306 316 0
-306 -313 0
-306 -307 0
-306 -310 0
307 554 -308 0
307 -554 308 0
-307 -554 -308 0
-307 554 308 0
308 -107 -309 0
308 107 309 0
-308 107 -309 0
-308 -107 309 0
309 476 -477 0
309 -476 477 0
-309 -476 -477 0
-309 476 477 0
310 555 -311 0
310 -555 311 0
-310 -555 -311 0
-310 555 311 0
311 -109 -312 0
311 109 312 0
-311 109 -312 0
-311 -109 312 0
312 478 -479 0
312 -478 479 0
-312 -478 -479 0
-312 478 479 0
313 556 -314 0
313 -556 314 0
-313 -556 -314 0
-313 556 314 0
314 -111 -315 0
314 111 315 0
-314 111 -315 0
-314 -111 315 0
315 480 -481 0
315 -480 481 0
-315 -480 -481 0
-315 480 481 0
316 317 320 323 -326 0
-316 326 0
-316 -323 0
-316 -317 0
-316 -320 0
317 557 -318 0
317 -557 318 0
-317 -557 -318 0
-317 557 318 0
318 -113 -319 0
318 113 319 0
-318 113 -319 0
-318 -113 319 0
319 482 -483 0
319 -482 483 0
-319 -482 -483 0
-319 482 483 0
320 558 -321 0
320 -558 321 0
-320 -558 -321 0
-320 558 321 0
321 -115 -322 0
321 115 322 0
-321 115 -322 0
-321 -115 322 0
322 484 -485 0
322 -484 485 0
-322 -484 -485 0
-322 484 485 0
323 559 -324 0
323 -559 324 0
-323 -559 -324 0
-323 559 324 0
324 -117 -325 0
324 117 325 0
-324 117 -325 0
-324 -117 325 0
325 486 -487 0
325 -486 487 0
-325 -486 -487 0
-325 486 487 0
326 327 330 333 -335 0
-326 335 0
-326 -333 0
-326 -327 0
-326 -330 0
327 560 -328 0
327 -560 328 0
-327 -560 -328 0
-327 560 328 0
328 -119 -329 0
328 119 329 0
-328 119 -329 0
-328 -119 329 0
329 488 -489 0
329 -488 489 0
-329 -488 -489 0
-329 488 489 0
330 561 -331 0
330 -561 331 0
-330 -561 -331 0
-330 561 331 0
331 -121 -332 0
331 121 332 0
-331 121 -332 0
-331 -121 332 0
332 490 -491 0
332 -490 491 0
-332 -490 -491 0
-332 490 491 0
333 562 -334 0
333 -562 334 0
-333 -562 -334 0
-333 562 334 0
334 -123 -130 0
334 123 130 0
-334 123 -130 0
-334 -123 130 0
335 336 339 341 0
-335 -336 0
-335 -341 0
-335 -339 0
336 563 -337 0
336 -563 337 0
-336 -563 -337 0
-336 563 337 0
337 -125 -338 0
337 125 338 0
-337 125 -338 0
-337 -125 338 0
338 494 -495 0
338 -494 495 0
-338 -494 -495 0
-338 494 495 0
339 564 -340 0
339 -564 340 0
-339 -564 -340 0
-339 564 340 0
340 -127 -129 0
340 127 129 0
-340 127 -129 0
-340 -127 129 0
341 565 -342 0
341 -565 342 0
-341 -565 -342 0
-341 565 342 0
342 343 -344 0
342 -343 344 0
-342 -343 -344 0
-342 343 344 0
343 -500 -501 0
-343 500 0
-343 501 0
344 498 -499 0
344 -498 499 0
-344 -498 -499 0
-344 498 499 0
345 339 341 -346 0
-345 346 0
-345 -341 0
-345 -339 0
346 333 336 -347 0
-346 347 0
-346 -336 0
-346 -333 0
347 327 330 -348 0
-347 348 0
-347 -330 0
-347 -327 0
348 317 320 323 -349 0
-348 349 0
-348 -323 0
-348 -317 0
-348 -320 0
349 307 310 313 -350 0
-349 350 0
-349 -313 0
-349 -307 0
-349 -310 0
350 300 303 -351 0
-350 351 0
-350 -303 0
-350 -300 0
351 293 297 -352 0
-351 352 0
-351 -297 0
-351 -293 0
352 287 290 -353 0
-352 353 0
-352 -290 0
-352 -287 0
353 280 283 -354 0
-353 354 0
-353 -283 0
-353 -280 0
354 273 276 -355 0
-354 355 0
-354 -276 0
-354 -273 0
355 266 269 -356 0
-355 356 0
-355 -269 0
-355 -266 0
356 259 262 -357 0
-356 357 0
-356 -262 0
-356 -259 0
357 252 255 -358 0
-357 358 0
-357 -255 0
-357 -252 0
358 245 248 -359 0
-358 359 0
-358 -248 0
-358 -245 0
359 238 241 -360 0
-359 360 0
-359 -241 0
-359 -238 0
360 232 235 -361 0
-360 361 0
-360 -235 0
-360 -232 0
361 226 230 -362 0
-361 362 0
-361 -230 0
-361 -226 0
362 220 223 -363 0
-362 363 0
-362 -223 0
-362 -220 0
363 214 217 -364 0
-363 364 0
-363 -217 0
-363 -214 0
364 207 210 -365 0
-364 365 0
-364 -210 0
-364 -207 0
365 200 203 -366 0
-365 366 0
-365 -203 0
-365 -200 0
366 193 196 -367 0
-366 367 0
-366 -196 0
-366 -193 0
367 186 189 -368 0
-367 368 0
-367 -189 0
-367 -186 0
368 180 183 -369 0
-368 369 0
-368 -183 0
-368 -180 0
369 173 176 -370 0
-369 370 0
-369 -176 0
-369 -173 0
370 166 169 -371 0
-370 371 0
-370 -169 0
-370 -166 0
371 160 163 -372 0
-371 372 0
-371 -163 0
-371 -160 0
372 153 156 -373 0
-372 373 0
-372 -156 0
-372 -153 0
373 146 149 -374 0
-373 374 0
-373 -149 0
-373 -146 0
374 5 137 142 0
-374 -5 0
-374 -142 0
-374 -137 0
566 0
2 -4 0
-2 4 0
3 -345 0
-3 345 0
3 0

